c "473254.clq"
p edge 100 1344
e 1 17
e 1 18
e 1 19
e 1 20
e 1 21
e 1 22
e 1 23
e 1 24
e 1 25
e 1 27
e 1 28
e 1 29
e 1 31
e 1 34
e 1 35
e 1 36
e 1 37
e 1 38
e 1 39
e 1 41
e 1 43
e 1 45
e 1 46
e 1 48
e 1 51
e 1 52
e 1 54
e 1 57
e 1 63
e 1 68
e 1 69
e 1 73
e 1 75
e 1 77
e 1 80
e 1 81
e 1 85
e 1 90
e 1 93
e 1 94
e 1 100
e 2 17
e 2 18
e 2 19
e 2 20
e 2 21
e 2 22
e 2 26
e 2 32
e 2 34
e 2 35
e 2 36
e 2 45
e 2 51
e 2 59
e 2 63
e 2 64
e 2 72
e 2 76
e 2 79
e 2 84
e 2 87
e 2 100
e 3 17
e 3 18
e 3 20
e 3 21
e 3 22
e 3 23
e 3 26
e 3 32
e 3 33
e 3 38
e 3 45
e 3 50
e 3 66
e 3 70
e 3 77
e 3 78
e 3 80
e 3 83
e 3 85
e 4 17
e 4 18
e 4 19
e 4 20
e 4 21
e 4 23
e 4 24
e 4 25
e 4 29
e 4 30
e 4 31
e 4 33
e 4 40
e 4 42
e 4 50
e 4 54
e 4 57
e 4 58
e 4 60
e 4 61
e 4 66
e 4 75
e 4 81
e 4 82
e 4 90
e 4 92
e 5 17
e 5 18
e 5 24
e 5 25
e 5 31
e 5 45
e 5 49
e 5 50
e 5 55
e 5 60
e 5 84
e 5 89
e 6 17
e 6 18
e 6 19
e 6 22
e 6 23
e 6 33
e 6 34
e 6 49
e 6 50
e 6 54
e 6 71
e 6 88
e 7 17
e 7 18
e 7 19
e 7 20
e 7 21
e 7 22
e 7 24
e 7 25
e 7 26
e 7 27
e 7 28
e 7 29
e 7 31
e 7 32
e 7 33
e 7 34
e 7 35
e 7 36
e 7 37
e 7 38
e 7 40
e 7 41
e 7 42
e 7 43
e 7 45
e 7 47
e 7 48
e 7 49
e 7 51
e 7 53
e 7 56
e 7 59
e 7 62
e 7 65
e 7 66
e 7 67
e 7 70
e 7 72
e 7 73
e 7 75
e 7 81
e 7 82
e 7 83
e 7 84
e 7 89
e 7 90
e 7 92
e 7 94
e 7 98
e 7 99
e 8 17
e 8 18
e 8 19
e 8 20
e 8 21
e 8 22
e 8 23
e 8 24
e 8 25
e 8 26
e 8 27
e 8 28
e 8 31
e 8 33
e 8 36
e 8 37
e 8 38
e 8 39
e 8 43
e 8 44
e 8 46
e 8 52
e 8 54
e 8 56
e 8 57
e 8 63
e 8 69
e 8 74
e 8 77
e 8 79
e 8 80
e 8 83
e 8 86
e 8 91
e 9 17
e 9 18
e 9 19
e 9 20
e 9 21
e 9 22
e 9 23
e 9 40
e 9 55
e 9 57
e 9 58
e 9 67
e 9 70
e 9 77
e 10 17
e 10 18
e 10 19
e 10 20
e 10 21
e 10 24
e 10 26
e 10 27
e 10 28
e 10 29
e 10 30
e 10 31
e 10 40
e 10 41
e 10 43
e 10 44
e 10 46
e 10 48
e 10 49
e 10 54
e 10 56
e 10 62
e 10 70
e 10 74
e 10 75
e 10 77
e 10 84
e 10 85
e 10 88
e 10 89
e 10 92
e 10 93
e 10 96
e 11 17
e 11 19
e 11 20
e 11 21
e 11 22
e 11 23
e 11 24
e 11 25
e 11 26
e 11 27
e 11 28
e 11 29
e 11 32
e 11 33
e 11 40
e 11 43
e 11 52
e 11 54
e 11 55
e 11 56
e 11 58
e 11 61
e 11 63
e 11 67
e 11 71
e 11 74
e 11 86
e 11 92
e 11 97
e 12 17
e 12 18
e 12 19
e 12 20
e 12 24
e 12 25
e 12 26
e 12 30
e 12 32
e 12 33
e 12 35
e 12 42
e 12 48
e 12 59
e 12 61
e 12 91
e 13 17
e 13 18
e 13 19
e 13 20
e 13 21
e 13 22
e 13 23
e 13 24
e 13 28
e 13 29
e 13 30
e 13 32
e 13 34
e 13 36
e 13 37
e 13 39
e 13 42
e 13 43
e 13 46
e 13 51
e 13 52
e 13 53
e 13 56
e 13 60
e 13 62
e 13 65
e 13 76
e 13 78
e 13 79
e 13 94
e 14 17
e 14 18
e 14 19
e 14 20
e 14 21
e 14 22
e 14 24
e 14 26
e 14 27
e 14 28
e 14 30
e 14 37
e 14 38
e 14 41
e 14 44
e 14 51
e 14 57
e 14 60
e 14 61
e 14 67
e 14 69
e 14 75
e 14 78
e 14 79
e 14 97
e 15 17
e 15 18
e 15 19
e 15 23
e 15 24
e 15 25
e 15 32
e 15 33
e 15 45
e 15 48
e 15 59
e 15 75
e 15 80
e 15 85
e 15 94
e 15 98
e 15 100
e 16 17
e 16 18
e 16 19
e 16 20
e 16 21
e 16 22
e 16 23
e 16 25
e 16 28
e 16 29
e 16 30
e 16 31
e 16 32
e 16 33
e 16 34
e 16 38
e 16 39
e 16 41
e 16 43
e 16 49
e 16 53
e 16 54
e 16 55
e 16 58
e 16 65
e 16 66
e 16 67
e 16 71
e 16 73
e 16 76
e 16 84
e 16 85
e 16 88
e 16 92
e 16 97
e 16 98
e 17 18
e 17 19
e 17 20
e 17 21
e 17 22
e 17 23
e 17 24
e 17 25
e 17 26
e 17 27
e 17 28
e 17 29
e 17 30
e 17 31
e 17 33
e 17 36
e 17 40
e 17 41
e 17 42
e 17 46
e 17 47
e 17 48
e 17 49
e 17 51
e 17 52
e 17 54
e 17 55
e 17 56
e 17 57
e 17 59
e 17 62
e 17 64
e 17 65
e 17 66
e 17 67
e 17 68
e 17 69
e 17 71
e 17 74
e 17 75
e 17 78
e 17 81
e 17 84
e 17 85
e 17 90
e 17 93
e 17 94
e 17 98
e 17 99
e 18 19
e 18 20
e 18 21
e 18 22
e 18 23
e 18 24
e 18 25
e 18 26
e 18 27
e 18 28
e 18 30
e 18 31
e 18 33
e 18 34
e 18 36
e 18 39
e 18 40
e 18 44
e 18 45
e 18 47
e 18 49
e 18 52
e 18 55
e 18 61
e 18 64
e 18 65
e 18 67
e 18 68
e 18 69
e 18 72
e 18 73
e 18 81
e 18 87
e 18 92
e 18 95
e 19 20
e 19 21
e 19 22
e 19 23
e 19 24
e 19 25
e 19 26
e 19 27
e 19 28
e 19 29
e 19 30
e 19 31
e 19 34
e 19 35
e 19 37
e 19 38
e 19 39
e 19 40
e 19 41
e 19 42
e 19 43
e 19 45
e 19 46
e 19 50
e 19 51
e 19 52
e 19 53
e 19 55
e 19 56
e 19 59
e 19 60
e 19 61
e 19 63
e 19 64
e 19 68
e 19 70
e 19 71
e 19 72
e 19 78
e 19 80
e 19 82
e 19 83
e 19 87
e 19 88
e 19 89
e 19 93
e 19 95
e 20 21
e 20 22
e 20 23
e 20 24
e 20 26
e 20 27
e 20 28
e 20 29
e 20 30
e 20 32
e 20 34
e 20 35
e 20 36
e 20 39
e 20 41
e 20 42
e 20 47
e 20 48
e 20 53
e 20 54
e 20 56
e 20 57
e 20 58
e 20 62
e 20 70
e 20 71
e 20 72
e 20 90
e 20 95
e 20 96
e 20 97
e 21 22
e 21 23
e 21 25
e 21 26
e 21 27
e 21 28
e 21 29
e 21 30
e 21 31
e 21 32
e 21 35
e 21 36
e 21 37
e 21 38
e 21 39
e 21 40
e 21 41
e 21 46
e 21 47
e 21 50
e 21 51
e 21 52
e 21 56
e 21 60
e 21 63
e 21 65
e 21 69
e 21 74
e 21 75
e 21 77
e 21 81
e 21 82
e 21 84
e 21 85
e 21 86
e 21 88
e 21 89
e 21 93
e 21 98
e 22 23
e 22 24
e 22 25
e 22 27
e 22 29
e 22 32
e 22 33
e 22 34
e 22 36
e 22 37
e 22 38
e 22 39
e 22 40
e 22 41
e 22 42
e 22 43
e 22 44
e 22 45
e 22 47
e 22 49
e 22 50
e 22 54
e 22 58
e 22 59
e 22 62
e 22 73
e 22 75
e 22 76
e 22 80
e 22 82
e 22 88
e 22 90
e 22 91
e 22 96
e 22 98
e 22 99
e 23 25
e 23 26
e 23 27
e 23 28
e 23 30
e 23 31
e 23 32
e 23 34
e 23 35
e 23 36
e 23 37
e 23 40
e 23 42
e 23 50
e 23 53
e 23 55
e 23 60
e 23 61
e 23 63
e 23 64
e 23 67
e 23 69
e 23 74
e 23 83
e 23 92
e 23 100
e 24 25
e 24 26
e 24 27
e 24 28
e 24 29
e 24 31
e 24 32
e 24 33
e 24 34
e 24 35
e 24 36
e 24 37
e 24 38
e 24 39
e 24 42
e 24 44
e 24 46
e 24 48
e 24 51
e 24 52
e 24 53
e 24 55
e 24 56
e 24 57
e 24 59
e 24 60
e 24 68
e 24 70
e 24 77
e 24 80
e 24 81
e 24 84
e 24 87
e 24 88
e 24 89
e 24 91
e 24 97
e 24 99
e 25 26
e 25 27
e 25 29
e 25 30
e 25 31
e 25 35
e 25 36
e 25 37
e 25 38
e 25 41
e 25 43
e 25 52
e 25 53
e 25 61
e 25 63
e 25 64
e 25 67
e 25 70
e 25 75
e 25 79
e 25 82
e 25 85
e 25 86
e 25 90
e 25 93
e 25 96
e 25 99
e 26 27
e 26 28
e 26 29
e 26 30
e 26 35
e 26 37
e 26 38
e 26 40
e 26 41
e 26 43
e 26 45
e 26 46
e 26 47
e 26 49
e 26 50
e 26 53
e 26 55
e 26 56
e 26 57
e 26 62
e 26 67
e 26 75
e 26 80
e 26 83
e 26 84
e 26 89
e 26 92
e 26 99
e 27 30
e 27 31
e 27 33
e 27 35
e 27 36
e 27 37
e 27 38
e 27 39
e 27 43
e 27 44
e 27 46
e 27 47
e 27 50
e 27 51
e 27 52
e 27 53
e 27 56
e 27 64
e 27 65
e 27 69
e 27 74
e 27 76
e 27 80
e 27 86
e 27 88
e 27 100
e 28 29
e 28 32
e 28 35
e 28 39
e 28 44
e 28 45
e 28 48
e 28 49
e 28 55
e 28 56
e 28 59
e 28 60
e 28 64
e 28 67
e 28 68
e 28 71
e 28 76
e 28 83
e 28 86
e 28 91
e 28 94
e 28 95
e 28 97
e 29 30
e 29 31
e 29 32
e 29 34
e 29 35
e 29 39
e 29 40
e 29 41
e 29 46
e 29 47
e 29 48
e 29 49
e 29 50
e 29 51
e 29 54
e 29 61
e 29 64
e 29 72
e 29 85
e 29 87
e 29 94
e 29 98
e 29 99
e 30 33
e 30 34
e 30 35
e 30 37
e 30 44
e 30 47
e 30 57
e 30 58
e 30 65
e 30 67
e 30 72
e 30 73
e 30 77
e 30 79
e 30 81
e 30 83
e 30 84
e 30 85
e 30 86
e 30 87
e 30 95
e 30 96
e 30 97
e 31 32
e 31 33
e 31 34
e 31 35
e 31 44
e 31 45
e 31 48
e 31 50
e 31 51
e 31 52
e 31 54
e 31 61
e 31 66
e 31 68
e 31 75
e 31 80
e 31 83
e 31 87
e 31 88
e 31 90
e 31 91
e 31 92
e 31 93
e 31 94
e 31 99
e 32 34
e 32 36
e 32 40
e 32 44
e 32 47
e 32 48
e 32 49
e 32 57
e 32 60
e 32 62
e 32 64
e 32 65
e 32 76
e 32 81
e 32 82
e 32 83
e 32 86
e 32 87
e 32 90
e 32 92
e 32 94
e 32 96
e 32 97
e 33 36
e 33 37
e 33 38
e 33 41
e 33 42
e 33 44
e 33 45
e 33 50
e 33 52
e 33 55
e 33 58
e 33 60
e 33 64
e 33 65
e 33 66
e 33 68
e 33 71
e 33 76
e 33 91
e 33 92
e 33 95
e 34 37
e 34 38
e 34 39
e 34 40
e 34 41
e 34 42
e 34 43
e 34 44
e 34 45
e 34 46
e 34 47
e 34 49
e 34 50
e 34 51
e 34 54
e 34 60
e 34 61
e 34 71
e 34 73
e 34 75
e 34 76
e 34 77
e 34 78
e 34 79
e 34 82
e 34 84
e 34 87
e 34 95
e 34 100
e 35 40
e 35 44
e 35 48
e 35 51
e 35 54
e 35 57
e 35 58
e 35 59
e 35 61
e 35 62
e 35 69
e 35 74
e 35 79
e 35 80
e 35 99
e 36 39
e 36 42
e 36 43
e 36 44
e 36 48
e 36 56
e 36 57
e 36 58
e 36 59
e 36 61
e 36 63
e 36 65
e 36 68
e 36 74
e 36 86
e 36 89
e 36 91
e 36 93
e 36 95
e 37 38
e 37 43
e 37 44
e 37 48
e 37 49
e 37 50
e 37 53
e 37 55
e 37 58
e 37 66
e 37 78
e 37 79
e 37 80
e 37 81
e 37 89
e 37 90
e 37 97
e 37 100
e 38 39
e 38 45
e 38 46
e 38 54
e 38 59
e 38 63
e 38 72
e 38 73
e 38 82
e 38 85
e 38 89
e 38 98
e 39 41
e 39 42
e 39 43
e 39 45
e 39 46
e 39 47
e 39 53
e 39 59
e 39 62
e 39 67
e 39 69
e 39 70
e 39 73
e 39 74
e 39 75
e 39 76
e 39 77
e 39 91
e 40 42
e 40 47
e 40 52
e 40 53
e 40 59
e 40 61
e 40 76
e 40 88
e 40 89
e 40 96
e 40 97
e 41 42
e 41 51
e 41 57
e 41 64
e 41 65
e 41 71
e 41 74
e 41 81
e 41 90
e 42 47
e 42 48
e 42 49
e 42 52
e 42 53
e 42 54
e 42 60
e 42 62
e 42 63
e 42 68
e 42 70
e 42 73
e 42 74
e 42 75
e 42 79
e 42 80
e 42 83
e 42 84
e 42 86
e 42 87
e 42 89
e 42 94
e 42 96
e 43 55
e 43 60
e 43 64
e 43 70
e 43 77
e 43 84
e 43 87
e 43 91
e 44 46
e 44 47
e 44 53
e 44 65
e 44 66
e 44 71
e 44 78
e 44 82
e 44 84
e 44 91
e 44 93
e 45 46
e 45 49
e 45 58
e 45 66
e 45 68
e 45 76
e 45 78
e 45 82
e 45 83
e 45 86
e 45 98
e 46 58
e 46 59
e 46 69
e 46 72
e 46 100
e 47 51
e 47 55
e 47 56
e 47 61
e 47 63
e 47 68
e 47 77
e 48 50
e 48 52
e 48 55
e 48 60
e 48 63
e 48 66
e 48 67
e 48 68
e 48 69
e 48 76
e 48 90
e 48 92
e 48 94
e 48 98
e 49 53
e 49 58
e 49 66
e 49 71
e 49 73
e 49 76
e 49 81
e 49 86
e 50 60
e 50 66
e 50 69
e 50 72
e 50 73
e 50 75
e 50 78
e 50 80
e 50 81
e 50 83
e 50 85
e 50 86
e 50 87
e 50 96
e 50 99
e 51 56
e 51 64
e 51 65
e 51 69
e 51 70
e 51 72
e 51 78
e 51 88
e 51 91
e 51 95
e 51 97
e 52 57
e 52 58
e 52 62
e 52 64
e 52 66
e 52 70
e 52 79
e 52 80
e 52 81
e 52 85
e 52 95
e 53 63
e 53 65
e 53 66
e 53 74
e 53 76
e 53 79
e 53 85
e 53 86
e 53 88
e 53 90
e 53 93
e 53 99
e 54 61
e 54 72
e 54 77
e 54 80
e 54 87
e 54 94
e 55 62
e 55 73
e 55 83
e 55 89
e 55 99
e 56 57
e 56 62
e 56 70
e 56 94
e 56 100
e 57 58
e 57 62
e 57 64
e 57 65
e 57 70
e 57 74
e 57 77
e 57 78
e 57 82
e 57 83
e 57 96
e 58 59
e 58 62
e 58 68
e 58 71
e 58 72
e 58 74
e 58 78
e 58 93
e 58 95
e 59 63
e 59 69
e 59 72
e 59 79
e 59 82
e 60 67
e 60 84
e 60 92
e 60 93
e 60 95
e 61 63
e 61 67
e 61 77
e 61 95
e 62 66
e 62 77
e 62 89
e 62 97
e 63 72
e 63 93
e 63 98
e 63 100
e 64 68
e 65 68
e 65 73
e 66 76
e 66 79
e 66 86
e 66 95
e 67 71
e 67 72
e 67 73
e 67 78
e 67 96
e 68 69
e 68 70
e 68 79
e 68 87
e 68 93
e 69 71
e 69 83
e 69 89
e 69 94
e 70 71
e 70 73
e 70 79
e 70 82
e 70 98
e 70 99
e 70 100
e 71 86
e 72 78
e 72 81
e 72 90
e 73 74
e 73 78
e 73 88
e 74 81
e 74 85
e 74 88
e 74 95
e 74 96
e 75 88
e 75 89
e 75 90
e 76 82
e 76 87
e 76 91
e 77 87
e 77 93
e 78 85
e 78 94
e 78 97
e 78 100
e 79 91
e 79 92
e 79 98
e 81 82
e 81 93
e 81 95
e 81 97
e 82 90
e 82 91
e 82 100
e 83 84
e 83 96
e 83 98
e 83 100
e 84 92
e 85 98
e 86 97
e 86 100
e 87 88
e 87 94
e 87 99
e 88 92
e 89 91
e 90 96
e 91 96
e 91 100
e 92 98
e 93 99
e 95 96
e 96 97
e 98 99
